13246 9754 980
12164 14836 1333
11262 15738 1395
11093 14907 1456
9038 15962 1486
11065 15935 1253
10451 15549 1463
10077 16923 1417
10719 16281 1410
9296 16704 1458
9576 17424 1388
9187 14813 1489
11524 13476 1438
10129 14871 1478
11907 15093 1354
12569 13431 1363
8664 17336 1440
8371 17629 1420
8725 15275 1491
9693 15307 1484
7894 18106 1367
12461 14539 1261
13157 12843 1260
11778 14222 1416
13240 10760 1096
8532 15468 1491
7849 18151 1336
12103 13897 1396
